[2026-03-24T13:36:40.063Z] Pipeline "set_vm-3-t1_vm-3-t1_s001_g002" → 2026_03_24_13_36_40_set_vm-3-t1_vm-3-t1_s001_g002_max.sol
Set parameter Username
Set parameter LicenseID to value 2796068
Set parameter LogFile to value "gurobi.log"
Using license file /opt/gurobi/gurobi.lic
Academic license - for non-commercial use only - expires 2027-03-23

Gurobi Optimizer version 13.0.1 build v13.0.1rc0 (linux64 - "Ubuntu 24.04.4 LTS")
Copyright (c) 2026, Gurobi Optimization, LLC

Warning: Duplicate section found (read 'binary') - Is a variable name equal to an LP file format keyword?
Warning: Duplicate section found (read 'binary') - Is a variable name equal to an LP file format keyword?
Warning: Duplicate section found (read 'binary') - Is a variable name equal to an LP file format keyword?
Warning: Duplicate section found (read 'binary') - Is a variable name equal to an LP file format keyword?
Warning: Duplicate section found (read 'binary') - Is a variable name equal to an LP file format keyword?
Warning: Duplicate section found (read 'binary') - Is a variable name equal to an LP file format keyword?
Warning: Duplicate section found (read 'binary') - Is a variable name equal to an LP file format keyword?
Warning: Duplicate section found (read 'binary') - Is a variable name equal to an LP file format keyword?
Warning: Duplicate section found (read 'binary') - Is a variable name equal to an LP file format keyword?
Warning: Duplicate section found (read 'binary') - Is a variable name equal to an LP file format keyword?
Warning: Further warnings of this type will be omitted.
Read LP format model from file /root/bgw/data/uploads/2026_03_24_13_36_40_set_vm-3-t1_vm-3-t1_s001_g002_max.lp
Reading time = 0.00 seconds
: 471 rows, 94 columns, 1386 nonzeros

Using Gurobi shared library /opt/gurobi1301/linux64/lib/libgurobi.so.13.0.1

CPU model: AMD EPYC-Genoa Processor, instruction set [SSE2|AVX|AVX2|AVX512]
Thread count: 16 physical cores, 16 logical processors, using up to 16 threads

Optimize a model with 471 rows, 94 columns and 1386 nonzeros (Max)
Model fingerprint: 0x667a5cbd
Model has 6 linear objective coefficients
Variable types: 17 continuous, 77 integer (77 binary)
Coefficient statistics:
  Matrix range     [1e+00, 1e+01]
  Objective range  [1e+00, 1e+00]
  Bounds range     [1e+00, 1e+00]
  RHS range        [1e+00, 1e+01]

Found heuristic solution: objective 6.0000000
Presolve removed 120 rows and 26 columns
Presolve time: 0.00s
Presolved: 351 rows, 68 columns, 1093 nonzeros
Variable types: 0 continuous, 68 integer (63 binary)
Found heuristic solution: objective 9.0000000

Root relaxation: objective 2.700000e+01, 39 iterations, 0.00 seconds (0.00 work units)

    Nodes    |    Current Node    |     Objective Bounds      |     Work
 Expl Unexpl |  Obj  Depth IntInf | Incumbent    BestBd   Gap | It/Node Time

     0     0   27.00000    0   14    9.00000   27.00000   200%     -    0s
H    0     0                      13.0000000   27.00000   108%     -    0s
H    0     0                      16.0000000   27.00000  68.8%     -    0s
H    0     0                      17.0000000   27.00000  58.8%     -    0s
     0     0   27.00000    0   16   17.00000   27.00000  58.8%     -    0s
     0     0   27.00000    0   17   17.00000   27.00000  58.8%     -    0s
     0     0   27.00000    0   12   17.00000   27.00000  58.8%     -    0s
     0     0   24.00000    0   15   17.00000   24.00000  41.2%     -    0s
     0     0   24.00000    0   15   17.00000   24.00000  41.2%     -    0s
     0     0   24.00000    0   14   17.00000   24.00000  41.2%     -    0s
     0     0   23.88889    0    7   17.00000   23.88889  40.5%     -    0s
     0     0   23.66667    0   14   17.00000   23.66667  39.2%     -    0s
     0     0   23.66667    0   12   17.00000   23.66667  39.2%     -    0s
     0     0   23.00000    0   12   17.00000   23.00000  35.3%     -    0s
     0     0   23.00000    0   12   17.00000   23.00000  35.3%     -    0s
     0     0   23.00000    0   14   17.00000   23.00000  35.3%     -    0s
     0     0   23.00000    0   11   17.00000   23.00000  35.3%     -    0s
     0     0   23.00000    0   14   17.00000   23.00000  35.3%     -    0s
     0     0   23.00000    0   16   17.00000   23.00000  35.3%     -    0s
     0     0   23.00000    0   12   17.00000   23.00000  35.3%     -    0s
     0     0   23.00000    0   12   17.00000   23.00000  35.3%     -    0s
     0     0   23.00000    0   12   17.00000   23.00000  35.3%     -    0s
     0     2   23.00000    0   12   17.00000   23.00000  35.3%     -    0s

Cutting planes:
  Lift-and-project: 1
  Zero half: 1

Explored 172 nodes (2077 simplex iterations) in 0.07 seconds (0.04 work units)
Thread count was 16 (of 16 available processors)

Solution count 5: 17 16 13 ... 6

Optimal solution found (tolerance 1.00e-04)
Best objective 1.700000000000e+01, best bound 1.700000000000e+01, gap 0.0000%

Wrote result file '/root/bgw/data/results/2026_03_24_13_36_40_set_vm-3-t1_vm-3-t1_s001_g002_max.sol'

